(set-info :smt-lib-version 2.6)
(set-logic QF_NIA)
(set-info :source |
Generated by: Cristina Borralleras, Daniel Larraz, Albert Oliveras, Enric Rodriguez-Carbonell, Albert Rubio
Generated on: 2017-04-27
Generator: VeryMax
Application: Termination proving
Target solver: barcelogic
|)
(set-info :license "https://creativecommons.org/licenses/by/4.0/")
(set-info :category "industrial")
(set-info :status unsat)
(declare-fun Nl2arg11 () Int)
(declare-fun Nl2arg21 () Int)
(declare-fun Nl2arg31 () Int)
(declare-fun lam0n0 () Int)
(declare-fun lam0n1 () Int)
(declare-fun lam0n2 () Int)
(declare-fun lam0n3 () Int)
(declare-fun lam0n4 () Int)
(declare-fun lam0n5 () Int)
(declare-fun lam0n6 () Int)
(declare-fun Nl2CT1 () Int)
(declare-fun lam1n0 () Int)
(declare-fun lam1n1 () Int)
(declare-fun lam1n2 () Int)
(declare-fun lam1n3 () Int)
(declare-fun lam1n4 () Int)
(declare-fun lam1n5 () Int)
(declare-fun lam1n6 () Int)
(declare-fun lam2n0 () Int)
(declare-fun lam2n3 () Int)
(declare-fun lam2n1 () Int)
(declare-fun lam2n2 () Int)
(assert ( and ( <= ( - 10 ) Nl2arg11 ) ( <= Nl2arg11 10 ) ( <= ( - 10 ) Nl2arg21 ) ( <= Nl2arg21 10 ) ( <= ( - 10 ) Nl2arg31 ) ( <= Nl2arg31 10 ) ))
(assert ( or ( and ( >= lam0n0 0 ) ( >= lam0n1 0 ) ( >= lam0n2 0 ) ( >= lam0n3 0 ) ( >= lam0n4 0 ) ( >= lam0n5 0 ) ( >= lam0n6 0 ) ( > ( + ( * 1 lam0n2 ) ( * 4 lam0n3 ) ( * 3 lam0n4 ) ( * 3 lam0n5 ) ( * Nl2CT1 lam0n6 ) ( - 1 ) ) 0 ) ( = ( + ( * ( - 1 ) lam0n0 ) ( * ( - 1 ) lam0n3 ) ( * ( - 1 ) lam0n4 ) ( * Nl2arg11 lam0n6 ) ) 0 ) ( = ( + ( * ( - 1 ) lam0n1 ) ( * Nl2arg21 lam0n6 ) ) 0 ) ( = ( + ( * ( - 1 ) lam0n2 ) ( * 1 lam0n3 ) ( * Nl2arg31 lam0n6 ) ) 0 ) ( = ( + ( * 1 lam0n0 ) ( * ( - 1 ) lam0n5 ) ) 0 ) ) ( and ( >= lam1n0 0 ) ( >= lam1n1 0 ) ( >= lam1n2 0 ) ( >= lam1n3 0 ) ( >= lam1n4 0 ) ( >= lam1n5 0 ) ( >= lam1n6 0 ) ( > ( + ( * 1 lam1n2 ) ( * 4 lam1n3 ) ( * 3 lam1n4 ) ( * 3 lam1n5 ) ( * Nl2CT1 lam1n6 ) ( - 1 ( + ( + ( + Nl2CT1 ( * Nl2arg11 0 ) ) ( * Nl2arg21 10 ) ) ( * Nl2arg31 ( - 1 ) ) ) ) ) 0 ) ( = ( + ( * ( - 1 ) lam1n0 ) ( * ( - 1 ) lam1n3 ) ( * ( - 1 ) lam1n4 ) ( * Nl2arg11 lam1n6 ) ) 0 ) ( = ( + ( * ( - 1 ) lam1n1 ) ( * Nl2arg21 lam1n6 ) ( - ( + 0 ( * Nl2arg21 1 ) ) ) ) 0 ) ( = ( + ( * ( - 1 ) lam1n2 ) ( * 1 lam1n3 ) ( * Nl2arg31 lam1n6 ) ( - ( + 0 ( * Nl2arg31 1 ) ) ) ) 0 ) ( = ( + ( * 1 lam1n0 ) ( * ( - 1 ) lam1n5 ) ( - ( + 0 ( * Nl2arg11 1 ) ) ) ) 0 ) ) ))
(assert ( and ( >= lam2n0 0 ) ( > ( + ( * 14 lam2n0 ) ( * ( - 10 ) lam2n3 ) ( - 1 Nl2CT1 ) ) 0 ) ( = ( + ( * 1 lam2n1 ) ( - ( + 0 Nl2arg11 ) ) ) 0 ) ( = ( + ( * 1 lam2n2 ) ( - ( + 0 Nl2arg21 ) ) ) 0 ) ( = ( + ( * 1 lam2n3 ) ( - ( + 0 Nl2arg31 ) ) ) 0 ) ( = ( + ( * ( - 1 ) lam2n0 ) ( * ( - 1 ) lam2n1 ) ) 0 ) ))
(assert ( and ( >= lam0n0 0 ) ( >= lam0n1 0 ) ( >= lam0n2 0 ) ( >= lam0n3 0 ) ( >= lam0n4 0 ) ( >= lam0n5 0 ) ( >= lam0n6 0 ) ( > ( + ( * 1 lam0n2 ) ( * 4 lam0n3 ) ( * 3 lam0n4 ) ( * 3 lam0n5 ) ( * Nl2CT1 lam0n6 ) ( - 1 ) ) 0 ) ( = ( + ( * ( - 1 ) lam0n0 ) ( * ( - 1 ) lam0n3 ) ( * ( - 1 ) lam0n4 ) ( * Nl2arg11 lam0n6 ) ) 0 ) ( = ( + ( * ( - 1 ) lam0n1 ) ( * Nl2arg21 lam0n6 ) ) 0 ) ( = ( + ( * ( - 1 ) lam0n2 ) ( * 1 lam0n3 ) ( * Nl2arg31 lam0n6 ) ) 0 ) ( = ( + ( * 1 lam0n0 ) ( * ( - 1 ) lam0n5 ) ) 0 ) ))
(check-sat)
(exit)
